c FILE /home/rafael/Documents/HappySet/MIHS/inputs/happygen/output/graph_scale_free_k20_p0.2_v100_20241127_083926.txt
c SOURCE This is a scale-free graph formed for the happy graph colouring problem.
c DESCRIPTION It was generated using the problem generator of Rhyd Lewis
c
c GRAPH STATS
c Seed                             = 61969365
c Number of Nodes                  = 100
c Number of colours k              = 20
c Number of pre-assignments        = 20
c Number of links per new node     = 5
c Density                          = 0.0979798
c 
c The degrees of nodes 1 to 100, respectively, are as follows 
c [31, 30, 27, 27, 27, 26, 24, 23, 23, 18, 18, 17, 16, 15, 14, 14, 14, 14, 14, 13, 13, 13, 13, 12, 11, 11, 
c  10, 10, 10, 10, 10, 10, 10, 10, 9, 9, 9, 9, 9, 9, 8, 8, 8, 8, 8, 8, 8, 8, 8, 8, 7, 
c  7, 7, 7, 7, 7, 7, 7, 7, 6, 6, 6, 6, 6, 6, 6, 6, 6, 6, 5, 5, 5, 5, 5, 5, 5, 
c  5, 5, 5, 5, 5, 5, 5, 5, 5, 5, 5, 5, 5, 5, 5, 5, 5, 5, 5, 5, 5, 5, 5, 5] 
c  
p edge 100 485 20
e 1 2
e 1 3
e 1 4
e 1 6
e 1 7
e 1 8
e 1 9
e 1 10
e 1 11
e 1 13
e 1 14
e 1 18
e 1 19
e 1 20
e 1 21
e 1 22
e 1 23
e 1 25
e 1 26
e 1 29
e 1 33
e 1 36
e 1 45
e 1 47
e 1 48
e 1 51
e 1 52
e 1 53
e 1 54
e 1 70
e 1 77
e 2 3
e 2 4
e 2 5
e 2 6
e 2 8
e 2 9
e 2 10
e 2 11
e 2 13
e 2 14
e 2 17
e 2 20
e 2 32
e 2 33
e 2 36
e 2 37
e 2 38
e 2 41
e 2 42
e 2 44
e 2 45
e 2 51
e 2 53
e 2 58
e 2 59
e 2 74
e 2 76
e 2 77
e 2 87
e 3 4
e 3 5
e 3 6
e 3 7
e 3 8
e 3 9
e 3 10
e 3 11
e 3 15
e 3 18
e 3 21
e 3 22
e 3 28
e 3 34
e 3 35
e 3 38
e 3 39
e 3 58
e 3 60
e 3 63
e 3 68
e 3 83
e 3 85
e 3 86
e 3 90
e 4 7
e 4 8
e 4 9
e 4 12
e 4 14
e 4 15
e 4 18
e 4 24
e 4 31
e 4 32
e 4 36
e 4 43
e 4 45
e 4 48
e 4 53
e 4 55
e 4 60
e 4 68
e 4 71
e 4 73
e 4 75
e 4 77
e 4 81
e 4 100
e 5 7
e 5 8
e 5 9
e 5 10
e 5 12
e 5 13
e 5 14
e 5 16
e 5 18
e 5 19
e 5 20
e 5 21
e 5 32
e 5 33
e 5 34
e 5 37
e 5 41
e 5 48
e 5 52
e 5 58
e 5 62
e 5 72
e 5 78
e 5 86
e 5 94
e 6 7
e 6 8
e 6 10
e 6 11
e 6 12
e 6 20
e 6 23
e 6 26
e 6 28
e 6 41
e 6 45
e 6 49
e 6 50
e 6 62
e 6 65
e 6 69
e 6 73
e 6 80
e 6 81
e 6 83
e 6 84
e 6 87
e 6 99
e 7 11
e 7 12
e 7 13
e 7 15
e 7 16
e 7 26
e 7 29
e 7 33
e 7 34
e 7 35
e 7 44
e 7 46
e 7 55
e 7 59
e 7 62
e 7 63
e 7 65
e 7 88
e 7 100
e 8 9
e 8 10
e 8 16
e 8 20
e 8 21
e 8 23
e 8 27
e 8 28
e 8 31
e 8 38
e 8 43
e 8 55
e 8 61
e 8 70
e 8 91
e 8 97
e 8 99
e 9 10
e 9 16
e 9 24
e 9 25
e 9 30
e 9 31
e 9 32
e 9 36
e 9 38
e 9 41
e 9 42
e 9 55
e 9 56
e 9 68
e 9 83
e 9 89
e 9 96
e 10 14
e 10 16
e 10 26
e 10 35
e 10 37
e 10 61
e 10 69
e 10 74
e 10 79
e 10 82
e 10 91
e 11 15
e 11 21
e 11 24
e 11 35
e 11 40
e 11 44
e 11 46
e 11 50
e 11 59
e 11 65
e 11 80
e 11 81
e 11 84
e 12 17
e 12 20
e 12 22
e 12 29
e 12 30
e 12 39
e 12 41
e 12 42
e 12 49
e 12 70
e 12 87
e 12 95
e 12 98
e 13 15
e 13 20
e 13 25
e 13 27
e 13 31
e 13 35
e 13 42
e 13 60
e 13 66
e 13 68
e 13 75
e 13 96
e 14 22
e 14 30
e 14 46
e 14 65
e 14 67
e 14 78
e 14 79
e 14 92
e 14 95
e 14 96
e 15 17
e 15 27
e 15 28
e 15 32
e 15 36
e 15 60
e 15 61
e 15 86
e 15 93
e 16 25
e 16 63
e 16 64
e 16 65
e 16 67
e 16 71
e 16 79
e 16 80
e 16 86
e 17 20
e 17 35
e 17 47
e 17 55
e 17 56
e 17 70
e 17 77
e 17 79
e 17 88
e 17 92
e 17 98
e 18 36
e 18 39
e 18 54
e 18 58
e 18 75
e 18 76
e 18 88
e 18 89
e 18 93
e 18 99
e 19 24
e 19 27
e 19 31
e 19 47
e 19 52
e 19 57
e 19 69
e 19 71
e 19 74
e 19 93
e 19 95
e 19 96
e 20 23
e 20 25
e 20 51
e 20 70
e 20 81
e 21 22
e 21 24
e 21 27
e 21 43
e 21 44
e 21 53
e 21 60
e 21 95
e 22 23
e 22 26
e 22 29
e 22 37
e 22 62
e 22 67
e 22 71
e 22 89
e 23 40
e 23 43
e 23 46
e 23 51
e 23 61
e 23 84
e 23 91
e 23 100
e 24 31
e 24 37
e 24 50
e 24 51
e 24 64
e 24 90
e 24 95
e 25 30
e 25 68
e 25 72
e 25 73
e 25 80
e 25 88
e 26 46
e 26 72
e 26 75
e 26 77
e 26 87
e 26 93
e 27 39
e 27 40
e 27 41
e 27 66
e 27 97
e 28 42
e 28 45
e 28 59
e 28 63
e 28 82
e 28 94
e 29 39
e 29 47
e 29 57
e 29 62
e 29 66
e 29 72
e 30 33
e 30 35
e 30 56
e 30 64
e 30 73
e 30 74
e 31 40
e 31 67
e 31 85
e 31 90
e 32 71
e 32 78
e 32 85
e 32 92
e 32 96
e 33 34
e 33 52
e 33 57
e 33 74
e 33 84
e 34 38
e 34 54
e 34 78
e 34 82
e 34 83
e 34 88
e 35 38
e 35 42
e 36 40
e 36 54
e 36 61
e 37 39
e 37 44
e 37 50
e 37 57
e 38 76
e 38 81
e 38 90
e 39 47
e 39 48
e 39 67
e 40 50
e 40 59
e 40 66
e 40 76
e 41 51
e 41 99
e 42 52
e 42 72
e 43 51
e 43 56
e 43 64
e 43 85
e 44 75
e 44 92
e 44 100
e 45 66
e 45 73
e 45 79
e 46 48
e 46 49
e 46 91
e 47 86
e 47 90
e 47 98
e 48 49
e 48 56
e 48 84
e 49 55
e 49 76
e 49 94
e 49 99
e 50 94
e 50 97
e 50 98
e 52 78
e 52 91
e 53 65
e 53 82
e 53 100
e 54 57
e 54 67
e 54 97
e 55 82
e 56 87
e 56 89
e 57 80
e 57 85
e 58 61
e 58 92
e 58 97
e 59 83
e 59 94
e 60 63
e 62 69
e 63 64
e 64 93
e 66 89
e 68 69
e 69 98
n 16 10
n 23 7
n 27 14
n 31 8
n 32 11
n 34 16
n 45 1
n 47 20
n 48 3
n 52 9
n 55 4
n 58 17
n 59 2
n 60 18
n 62 15
n 68 19
n 74 6
n 77 13
n 81 12
n 95 5
